SimulationType Minimization
NumberOfCycles 1
PrintEvery 1
MaximumNumberOfMinimizationSteps 1000
Forcefield Dubbeldam2007FlexibleIRMOF-1
RMSGradientTolerance 1e-06
MaxGradientTolerance 1e-06
Ensemble NVT
CutOffVDW 9
ChargeMethod Ewald
EwaldPrecision 1e-10
InternalFrameworkLennardJonesInteractions yes
Restart no
Framework 0
    FrameworkName IRMOF-1
    UnitCells 1 1 1
    ExternalTemperature 300.0
    FlexibleFramework yes
